Pt O  H 
 1.0000000000000000
     5.5493740187520251    0.0000000000000000    0.0000000000000000
     2.7746870093760125    4.8058988753405947    0.0000000000000000
     0.0000000000000000    0.0000000000000000   24.5310449126001835
 Pt  O   H  
  12   1   1
Cartesian
  1.3873435046880063  0.8009831458900991 10.0000000000000000
  4.1620305140640186  0.8009831458900991 10.0000000000000000
  2.7746870093760125  3.2039325835603965 10.0000000000000000
  5.5493740187520251  3.2039325835603965 10.0000000000000000
  0.0000000000000000  1.6019662917801982 12.2655224563000917
  2.7746870093760130  1.6019662917801982 12.2655224563000917
  1.3873435046880060  4.0049157294504951 12.2655224563000917
  4.1620305140640186  4.0049157294504951 12.2655224563000917
  0.0000000000000000  0.0000000000000000 14.5310449126001835
  2.7746870093760125  0.0000000000000000 14.5310449126001835
  1.3873435046880063  2.4029494376702973 14.5310449126001835
  4.1620305140640186  2.4029494376702973 14.5310449126001835
  1.3873435046880063  0.8009831458900991 16.0310449126001835
  1.3873435046880063  0.8009831458900991 15.0519749126001834
